100001        0             1    100
2005          0             5    2  
5             0             5    0  
2             0             2    0  
100004        0             4    100
100002        0             2    100
5005          0             5    5  
1001          0             1    1  
3             0             3    0  
1005          0             5    1  
2004          0             4    2  
100100        0             100  100
3005          0             5    3  
100003        0             3    100
1003          0             3    1  
3003          0             3    3  
4005          0             5    4  
2003          0             3    2  
4             0             4    0  
3004          0             4    3  
100005        0             5    100
100           0             100  0  
1             0             1    0  
1002          0             2    1  
4004          0             4    4  
0             0             0    0  
2002          0             2    2  
1004          0             4    1  
